c Reachability CNF generated by lab1_parser_jkhare.cpp
c File: ./verilog_src/ex1.v
c Unroll k = 15
c Target at time k = 11
p cnf 122 229
-2 -1 5 0
2 -5 0
1 -5 0
-4 -5 6 0
4 -6 0
5 -6 0
5 7 0
-5 -7 0
-4 -5 8 0
4 -8 0
5 -8 0
-9 6 0
9 -6 0
-10 7 0
10 -7 0
-10 -9 13 0
10 -13 0
9 -13 0
-12 -13 14 0
12 -14 0
13 -14 0
13 15 0
-13 -15 0
-12 -13 16 0
12 -16 0
13 -16 0
-17 14 0
17 -14 0
-18 15 0
18 -15 0
-18 -17 21 0
18 -21 0
17 -21 0
-20 -21 22 0
20 -22 0
21 -22 0
21 23 0
-21 -23 0
-20 -21 24 0
20 -24 0
21 -24 0
-25 22 0
25 -22 0
-26 23 0
26 -23 0
-26 -25 29 0
26 -29 0
25 -29 0
-28 -29 30 0
28 -30 0
29 -30 0
29 31 0
-29 -31 0
-28 -29 32 0
28 -32 0
29 -32 0
-33 30 0
33 -30 0
-34 31 0
34 -31 0
-34 -33 37 0
34 -37 0
33 -37 0
-36 -37 38 0
36 -38 0
37 -38 0
37 39 0
-37 -39 0
-36 -37 40 0
36 -40 0
37 -40 0
-41 38 0
41 -38 0
-42 39 0
42 -39 0
-42 -41 45 0
42 -45 0
41 -45 0
-44 -45 46 0
44 -46 0
45 -46 0
45 47 0
-45 -47 0
-44 -45 48 0
44 -48 0
45 -48 0
-49 46 0
49 -46 0
-50 47 0
50 -47 0
-50 -49 53 0
50 -53 0
49 -53 0
-52 -53 54 0
52 -54 0
53 -54 0
53 55 0
-53 -55 0
-52 -53 56 0
52 -56 0
53 -56 0
-57 54 0
57 -54 0
-58 55 0
58 -55 0
-58 -57 61 0
58 -61 0
57 -61 0
-60 -61 62 0
60 -62 0
61 -62 0
61 63 0
-61 -63 0
-60 -61 64 0
60 -64 0
61 -64 0
-65 62 0
65 -62 0
-66 63 0
66 -63 0
-66 -65 69 0
66 -69 0
65 -69 0
-68 -69 70 0
68 -70 0
69 -70 0
69 71 0
-69 -71 0
-68 -69 72 0
68 -72 0
69 -72 0
-73 70 0
73 -70 0
-74 71 0
74 -71 0
-74 -73 77 0
74 -77 0
73 -77 0
-76 -77 78 0
76 -78 0
77 -78 0
77 79 0
-77 -79 0
-76 -77 80 0
76 -80 0
77 -80 0
-81 78 0
81 -78 0
-82 79 0
82 -79 0
-82 -81 85 0
82 -85 0
81 -85 0
-84 -85 86 0
84 -86 0
85 -86 0
85 87 0
-85 -87 0
-84 -85 88 0
84 -88 0
85 -88 0
-89 86 0
89 -86 0
-90 87 0
90 -87 0
-90 -89 93 0
90 -93 0
89 -93 0
-92 -93 94 0
92 -94 0
93 -94 0
93 95 0
-93 -95 0
-92 -93 96 0
92 -96 0
93 -96 0
-97 94 0
97 -94 0
-98 95 0
98 -95 0
-98 -97 101 0
98 -101 0
97 -101 0
-100 -101 102 0
100 -102 0
101 -102 0
101 103 0
-101 -103 0
-100 -101 104 0
100 -104 0
101 -104 0
-105 102 0
105 -102 0
-106 103 0
106 -103 0
-106 -105 109 0
106 -109 0
105 -109 0
-108 -109 110 0
108 -110 0
109 -110 0
109 111 0
-109 -111 0
-108 -109 112 0
108 -112 0
109 -112 0
-113 110 0
113 -110 0
-114 111 0
114 -111 0
-114 -113 117 0
114 -117 0
113 -117 0
-116 -117 118 0
116 -118 0
117 -118 0
117 119 0
-117 -119 0
-116 -117 120 0
116 -120 0
117 -120 0
-121 118 0
121 -118 0
-122 119 0
122 -119 0
121 0
122 0
-1 0
-2 0
